c   #vars: 77   #clauses: 351   #literals: 970
c 
p cnf 77 351
-1 -2 0
41 42 66 67 0
13 14 64 65 0
6 -48 76 77 0
-4 -5 0
7 8 33 -64 0
-7 -8 0
-9 -10 0
-11 -12 0
-13 -14 0
39 40 56 57 0
1 2 48 49 0
-15 -16 0
-17 -18 0
-19 -20 0
-21 -22 0
-23 -24 0
-25 -26 0
-27 -28 0
-29 -30 0
-7 33 64 65 0
4 5 76 77 0
-31 -32 0
-8 25 26 36 0
-34 -35 0
43 -58 72 73 0
-37 -38 0
-39 -40 0
-41 -42 0
50 62 63 -68 0
-44 -45 0
-46 -47 0
-48 -49 0
19 20 -44 51 0
37 38 -50 68 0
-52 -53 0
-54 -55 0
-56 -57 0
7 8 58 59 0
-58 -59 0
-60 -61 0
-62 -63 0
-64 -65 0
-66 -67 0
25 26 -44 71 0
1 2 69 70 0
-69 -70 0
17 18 74 75 0
-72 -73 0
39 40 74 75 0
-74 -75 0
9 10 27 28 0
-76 -77 0
-1 -48 0
-2 -49 0
-38 50 -62 68 0
-22 37 38 68 0
-2 -51 0
3 -8 36 -69 0
-1 -58 0
-2 -59 0
-22 50 -62 68 0
-1 -69 0
-2 -70 0
3 -36 69 70 0
-1 -72 0
-2 -73 0
37 38 62 63 0
21 22 66 67 0
3 -36 62 63 0
23 24 54 55 0
9 10 54 55 0
41 42 58 59 0
15 16 39 40 0
6 -27 76 77 0
-4 43 72 73 0
9 10 64 65 0
6 27 28 -76 0
-3 -63 0
34 35 52 53 0
6 27 28 -48 0
-3 -70 0
-3 25 26 36 0
-5 -33 0
-4 -34 0
-5 -35 0
17 18 37 38 0
-19 50 62 63 0
-5 -43 0
48 49 72 73 0
-4 -54 0
-5 -55 0
25 26 69 70 0
-4 -76 0
-5 -77 0
7 8 74 75 0
-4 7 8 33 0
-6 -28 0
25 26 34 35 0
4 5 33 -64 0
-6 -49 0
4 5 -7 33 0
-6 -77 0
23 24 34 35 0
-7 -31 0
-8 -32 0
19 20 37 38 0
7 8 -26 36 0
-8 -33 0
-7 -36 0
4 5 43 -72 0
-7 -44 0
-8 -45 0
7 8 44 45 0
-7 -58 0
-8 -59 0
11 12 62 63 0
-7 -60 0
-8 -61 0
25 26 44 45 0
-7 -74 0
-8 -75 0
21 22 52 53 0
-9 -27 0
-10 -28 0
17 18 60 61 0
-9 -41 0
-10 -42 0
17 18 46 47 0
-9 -48 0
-10 -49 0
17 18 39 40 0
-9 -54 0
-10 -55 0
-9 -56 0
-10 -57 0
9 10 41 42 0
-9 -64 0
-10 -65 0
19 20 41 42 0
-11 -37 0
-12 -38 0
-11 -39 0
-12 -40 0
-11 -46 0
-12 -47 0
29 30 69 70 0
-11 -62 0
-12 -63 0
39 40 58 59 0
-13 -34 0
-14 -35 0
19 20 50 -68 0
-13 -52 0
-14 -53 0
41 42 56 57 0
-13 -54 0
-14 -55 0
-13 -64 0
-14 -65 0
11 12 39 40 0
-15 -39 0
-16 -40 0
3 -62 69 70 0
-15 -60 0
-16 -61 0
3 62 63 -69 0
-15 -66 0
-16 -67 0
-15 -74 0
-16 -75 0
19 20 76 77 0
-17 -31 0
-18 -32 0
-19 -38 50 68 0
-17 -37 0
-18 -38 0
-1 44 45 51 0
-17 -39 0
-18 -40 0
-17 -46 0
-18 -47 0
-19 44 45 51 0
-17 -60 0
-18 -61 0
15 16 74 75 0
-17 -74 0
-18 -75 0
23 24 62 63 0
-19 -37 0
-20 -38 0
21 22 39 40 0
-19 -41 0
-20 -42 0
4 5 54 55 0
-1 19 20 51 0
-20 -50 0
21 22 -50 68 0
-20 -51 0
-19 -64 0
-20 -65 0
46 47 74 75 0
-19 -76 0
-20 -77 0
3 -26 36 -69 0
-21 -39 0
-22 -40 0
3 -8 36 -62 0
-21 -52 0
-22 -53 0
-21 -66 0
-22 -67 0
13 14 54 55 0
-21 -68 0
25 26 -41 71 0
48 49 54 55 0
-23 -31 0
-24 -32 0
23 24 31 32 0
-23 -34 0
-24 -35 0
17 18 31 32 0
-23 -44 0
-24 -45 0
31 32 52 53 0
-23 -54 0
-24 -55 0
-23 -56 0
-24 -57 0
29 30 66 67 0
-23 -62 0
-24 -63 0
23 24 44 45 0
-25 -34 0
-26 -35 0
-25 -36 0
4 5 43 -58 0
31 32 54 55 0
-25 -44 0
-26 -45 0
6 -27 48 49 0
-25 -60 0
-26 -61 0
11 12 37 38 0
-25 -69 0
-26 -70 0
9 10 56 57 0
-26 -71 0
37 38 56 57 0
-25 -74 0
-26 -75 0
13 14 52 53 0
-27 -60 0
-28 -61 0
-19 -22 50 68 0
-27 -66 0
-28 -67 0
-29 -56 0
-30 -57 0
11 12 46 47 0
-29 -66 0
-30 -67 0
3 -26 36 -62 0
-29 -69 0
-30 -70 0
-29 -76 0
-30 -77 0
25 26 74 75 0
-4 43 58 59 0
48 49 74 75 0
43 58 59 -72 0
6 48 49 -76 0
-31 -52 0
-32 -53 0
34 35 76 77 0
-31 -54 0
-32 -55 0
4 5 34 35 0
25 26 60 61 0
-3 7 8 36 0
-33 -65 0
-4 33 64 65 0
-34 -52 0
-35 -53 0
-34 -76 0
-35 -77 0
46 47 58 59 0
-37 -56 0
-38 -57 0
27 28 66 67 0
-37 -62 0
-38 -63 0
9 10 48 49 0
-37 -68 0
-41 44 45 71 0
-37 -72 0
-38 -73 0
1 2 58 59 0
-39 -56 0
-40 -57 0
7 8 31 32 0
-39 -58 0
-40 -59 0
-39 -64 0
-40 -65 0
39 40 64 65 0
-39 -74 0
-40 -75 0
19 20 50 -62 0
-41 -56 0
-42 -57 0
7 8 60 61 0
-41 -58 0
-42 -59 0
1 2 72 73 0
-41 -66 0
-42 -67 0
37 38 72 73 0
-42 -71 0
15 16 66 67 0
-25 41 42 71 0
-43 -59 0
41 42 -44 71 0
-43 -73 0
13 14 34 35 0
21 22 -38 68 0
-45 -51 0
-45 -71 0
27 28 60 61 0
-46 -58 0
-47 -59 0
15 16 60 61 0
-46 -74 0
-47 -75 0
23 24 56 57 0
-48 -54 0
-49 -55 0
48 49 64 65 0
-48 -64 0
-49 -65 0
29 30 76 77 0
-48 -72 0
-49 -73 0
19 20 64 65 0
-48 -74 0
-49 -75 0
1 2 -44 51 0
-50 -63 0
29 30 56 57 0
1 2 -19 51 0
-25 44 45 71 0
